c --- [ banner ] -------------------------------------------------------------
c 
c CaDiCaL Radically Simplified CDCL SAT Solver
c Copyright (c) 2016-2021 A. Biere, M. Fleury, N. Froleyks
c 
c Version 1.5.2 a5f15211db36c3956764e18194dd5bd63bf3b5e6
c g++ (GCC) 9.3.0 -Wall -Wextra -O3 -DNDEBUG
c Fri Oct 21 01:27:37 EDT 2022 Linux gra-login3 3.10.0-1160.66.1.el7.x86_64 x86_64
c 
c --- [ limit ] --------------------------------------------------------------
c 
c setting conflict limit to 200000 conflicts (due to '200000')
c 
c --- [ parsing input ] ------------------------------------------------------
c 
c reading DIMACS file from '33.cubes771.adj'
c opening file to read '33.cubes771.adj'
c found 'p cnf 6160 1595475' header
c parsed 1595475 clauses in 19.67 seconds process time
c closing file '33.cubes771.adj'
c after reading 1457566773 bytes 1390.0 MB
c 
c --- [ options ] ------------------------------------------------------------
c 
c all options are set to their default value
c 
c --- [ solving ] ------------------------------------------------------------
c 
c time measured in process time since initialization
c 
c  seconds    reductions  redundant   irredundant
c          MB     restarts       trail       variables
c            level   conflicts       glue         remaining
c 
c * 19.67 1357  0 0   0    0    0  0% 0 1595422 2403 39%
c { 20.17 1383  0 0   0    0    0  0% 0 1595422 2403 39%
c i 20.47 1395 1217 0   0    9    7 36% 1 1595422 2396 39%
c i 21.25 1430 1013 0   2   33   28 37% 13 1595422 2382 39%
c i 21.64 1440 898 0   3   37   31 36% 12 1595422 2381 39%
c i 22.21 1448 727 0   4   47   39 35% 20 1595422 2380 39%
c i 22.25 1449 551 0   8   61   41 31% 18 1595422 2370 38%
c i 22.44 1449 266 0   8  124   50 24% 13 1595422 2369 38%
c i 22.46 1452 264 0   8  125   50 24% 12 1595422 2368 38%
c i 22.46 1452 262 0   8  126   50 24% 12 1595422 2367 38%
c i 22.59 1455 251 0   8  133   55 24% 13 1595422 2366 38%
c i 22.59 1455 249 0   8  134   55 24% 13 1595422 2365 38%
c i 22.59 1455 247 0   8  135   55 24% 13 1595422 2364 38%
c i 22.59 1455 245 0   8  136   55 24% 13 1595422 2363 38%
c i 22.59 1455 244 0   8  137   55 24% 13 1595422 2362 38%
c i 22.59 1455 239 0   8  140   57 24% 13 1595422 2361 38%
c i 22.59 1455 237 0   8  141   57 24% 13 1595422 2360 38%
c i 22.59 1455 236 0   8  142   57 24% 13 1595422 2359 38%
c i 22.59 1455 234 0   8  143   57 24% 12 1595422 2358 38%
c i 22.59 1455 232 0   8  144   57 24% 12 1595422 2357 38%
c 
c  seconds     reductions  redundant    irredundant
c          MB      restarts       trail        variables
c             level   conflicts       glue          remaining
c 
c i 22.59 1455 231 0   8  145   57 24% 12 1595422 2356 38%
c i 22.59 1455 229 0   8  146   57 24% 12 1595422 2355 38%
c i 22.59 1455 228 0   8  147   57 24% 12 1595422 2354 38%
c i 22.59 1455 226 0   8  148   57 24% 12 1595422 2353 38%
c i 22.59 1455 222 0   8  151   59 24% 12 1595422 2352 38%
c i 22.59 1455 221 0   8  152   59 24% 12 1595422 2351 38%
c i 22.59 1455 219 0   8  153   59 24% 12 1595422 2350 38%
c i 22.59 1455 218 0   8  154   59 24% 12 1595422 2349 38%
c i 22.59 1455 217 0   8  155   59 24% 12 1595422 2348 38%
c i 22.59 1455 215 0   8  156   59 24% 11 1595422 2347 38%
c i 22.59 1455 214 0   8  157   59 24% 11 1595422 2346 38%
c i 22.59 1455 213 0   8  158   59 24% 11 1595422 2345 38%
c i 22.59 1455 212 0   8  159   59 24% 11 1595422 2344 38%
c i 22.59 1455 210 0   8  160   59 24% 11 1595422 2343 38%
c i 22.62 1455 209 0   8  161   59 24% 11 1595422 2342 38%
c i 22.62 1455 208 0   8  162   59 24% 11 1595422 2341 38%
c i 22.62 1455 207 0   8  163   59 25% 11 1595422 2340 38%
c i 22.62 1455 206 0   8  164   59 25% 11 1595422 2339 38%
c i 22.63 1455 204 0   8  165   59 25% 11 1595422 2338 38%
c i 22.63 1455 203 0   8  166   59 25% 11 1595422 2337 38%
c 
c  seconds     reductions  redundant    irredundant
c          MB      restarts       trail        variables
c             level   conflicts       glue          remaining
c 
c i 22.68 1455 200 0   8  169   61 25% 11 1595422 2336 38%
c i 22.71 1455 199 0   8  170   61 25% 11 1595422 2335 38%
c i 22.71 1455 198 0   8  171   61 25% 11 1595422 2334 38%
c i 22.74 1455 196 0   8  173   62 25% 11 1595422 2333 38%
c i 22.88 1455 195 0   9  182   70 25% 14 1595422 2332 38%
c i 22.89 1455 195 0  10  185   70 25% 14 1595422 2329 38%
c i 22.94 1456 195 0  11  189   73 25% 15 1595422 2328 38%
c i 23.90 1462 168 0  23  239  115 26% 20 1595422 2327 38%
c i 24.12 1463 161 0  27  255  124 26% 21 1595422 2326 38%
c i 24.13 1463 160 0  27  256  124 26% 21 1595422 2325 38%
c i 24.16 1463 159 0  28  258  125 26% 21 1595422 2324 38%
c i 24.22 1463 158 0  29  262  127 26% 21 1595422 2323 38%
c i 24.22 1463 158 0  29  263  127 26% 21 1595422 2322 38%
c i 24.66 1465 154 0  35  291  152 26% 23 1595422 2320 38%
c i 24.70 1465 155 0  36  296  154 26% 24 1595422 2317 38%
c i 24.76 1465 155 0  37  297  154 26% 24 1595422 2316 38%
c i 24.76 1465 156 0  37  301  156 26% 24 1595422 2315 38%
c - 28.45 1392 156 1  38  301  156 26% 24 244549 2315 38%
c i 28.62 1392 155 1  38  305  159 26% 24 244549 2314 38%
c i 28.71 1392 153 1  42  318  170 26% 23 244549 2313 38%
c 
c  seconds     reductions  redundant   irredundant
c          MB      restarts       trail       variables
c             level   conflicts       glue         remaining
c 
c i 28.73 1392 149 1  44  326  177 26% 23 244549 2312 38%
c i 28.80 1392 142 1  46  352  192 26% 23 244549 2311 38%
c i 28.80 1392 142 1  46  353  192 26% 22 244549 2310 38%
c i 28.80 1392 141 1  46  354  192 26% 22 244549 2309 37%
c i 28.81 1392 141 1  46  360  194 26% 22 244549 2308 37%
c i 28.83 1392 137 1  46  379  209 26% 22 244549 2307 37%
c i 28.83 1392 137 1  46  380  209 26% 22 244549 2306 37%
c i 28.87 1392 135 1  46  387  215 26% 22 244549 2305 37%
c i 28.88 1392 135 1  46  391  218 26% 23 244549 2304 37%
c i 28.90 1392 134 1  46  393  219 26% 23 244549 2303 37%
c i 28.91 1392 133 1  46  397  222 26% 23 244549 2302 37%
c i 28.92 1392 133 1  46  398  222 26% 23 244549 2301 37%
c i 28.99 1392 133 1  46  418  230 26% 22 244549 2298 37%
c i 29.11 1392 132 1  47  433  241 26% 23 244549 2297 37%
c i 29.15 1392 130 1  50  442  249 26% 23 244549 2296 37%
c i 29.19 1392 130 1  51  449  252 26% 23 244549 2292 37%
c i 29.24 1392 115 1  54  537  279 25% 21 244549 2291 37%
c i 29.26 1392 116 1  58  556  293 25% 23 244549 2287 37%
c i 29.28 1392 118 1  60  566  297 25% 23 244549 2281 37%
c i 29.55 1393 115 1  71  613  333 25% 24 244549 2280 37%
c 
c  seconds     reductions  redundant   irredundant
c          MB      restarts       trail       variables
c             level   conflicts       glue         remaining
c 
c i 29.57 1393 115 1  72  617  336 25% 24 244549 2279 37%
c i 29.72 1393 114 1  77  636  353 25% 24 244549 2278 37%
c i 29.83 1393 110 1  85  668  369 25% 24 244549 2277 37%
c i 29.92 1393 110 1  85  674  374 25% 24 244549 2276 37%
c i 29.96 1393 109 1  85  678  376 25% 24 244549 2275 37%
c i 30.00 1393 109 1  85  683  379 25% 24 244549 2274 37%
c i 30.00 1393 109 1  85  684  379 25% 24 244549 2273 37%
c i 30.01 1393 108 1  85  687  381 25% 24 244549 2272 37%
c i 30.15 1393 102 1  86  758  444 25% 24 244549 2271 37%
c i 30.16 1393 102 1  86  760  444 25% 24 244549 2270 37%
c i 30.22 1393 102 1  86  775  454 25% 24 244549 2269 37%
c i 30.28 1393 102 1  88  788  466 25% 25 244549 2268 37%
c i 30.29 1393 102 1  88  790  467 25% 25 244549 2267 37%
c i 30.29 1393 102 1  88  792  467 25% 24 244549 2265 37%
c i 30.29 1393 102 1  88  793  467 25% 24 244549 2264 37%
c i 30.64 1393 89 1  91  953  553 25% 22 244549 2263 37%
c i 30.64 1393 89 1  91  957  556 25% 22 244549 2262 37%
c i 30.64 1393 89 1  91  959  557 25% 22 244549 2261 37%
c i 30.64 1393 89 1  91  961  558 25% 22 244549 2260 37%
c i 30.64 1393 89 1  91  962  558 25% 22 244549 2259 37%
c 
c  seconds    reductions  redundant   irredundant
c          MB     restarts       trail       variables
c            level   conflicts       glue         remaining
c 
c i 30.64 1393 88 1  91  963  558 25% 22 244549 2258 37%
c i 30.64 1393 88 1  91  966  560 25% 22 244549 2257 37%
c i 30.64 1393 88 1  91  967  560 25% 22 244549 2256 37%
c i 30.67 1393 88 1  91  971  563 25% 22 244549 2255 37%
c i 30.69 1393 88 1  91  975  566 25% 22 244549 2254 37%
c i 30.73 1393 87 1  91  981  571 25% 22 244549 2253 37%
c i 30.73 1393 87 1  91  982  571 25% 22 244549 2252 37%
c i 30.77 1393 86 1  91  997  582 25% 22 244549 2251 37%
c } 30.78 1393 86 1  91 1001  586 25% 22 244549 2251 37%
c [ 30.78 1393  0 1  91 1001  586  0% 0 244549 2251 37%
c O 30.79 1393  3 1  91 1002  587 18% 3 244549 2251 37%
c i 30.93 1393 17 1  91 1021  601 26% 10 244549 2250 37%
c i 31.05 1393 26 1  91 1044  622 29% 19 244549 2249 37%
c i 31.16 1393 26 1  91 1094  652 31% 21 244549 2248 36%
c - 31.68 1485 24 2  91 1137  616 32% 20 244354 2248 36%
c i 31.93 1485 23 2  91 1307  736 32% 20 244354 2247 36%
c i 32.04 1485 25 2  91 1480  882 32% 20 244354 2246 36%
c i 32.08 1485 24 2  91 1544  933 32% 20 244354 2245 36%
c - 32.83 1484 23 3  92 2388 1349 32% 20 244345 2245 36%
c i 33.33 1484 23 3  92 2706 1553 55% 20 244345 2244 36%
c 
c  seconds    reductions  redundant   irredundant
c          MB     restarts       trail       variables
c            level   conflicts       glue         remaining
c 
c ] 33.49 1484 23 3  92 3002 1735 54% 20 244345 2244 36%
c { 33.49 1484 86 3  92 3002 1735 68% 22 244345 2244 36%
c F 33.51 1484 86 3  92 3003 1735 68% 22 244345 2244 36%
c i 33.51 1484 86 3  92 3003 1735 68% 22 244345 2231 36%
c i 33.59 1484 80 3  92 3084 1796 65% 21 244345 2230 36%
c i 33.64 1484 79 3  92 3100 1800 65% 21 244345 2229 36%
c i 33.67 1484 76 3  92 3164 1850 63% 20 244345 2228 36%
c i 33.67 1484 76 3  92 3167 1852 63% 20 244345 2227 36%
c i 33.68 1484 76 3  92 3180 1864 63% 20 244345 2226 36%
c i 34.21 1484 61 3  92 3628 2212 58% 19 244345 2225 36%
c i 34.21 1484 61 3  92 3630 2213 58% 19 244345 2224 36%
c i 34.25 1484 60 3  92 3689 2259 57% 19 244345 2223 36%
c i 34.37 1484 59 3 105 3783 2330 57% 19 244345 2221 36%
c i 34.37 1484 59 3 105 3784 2330 57% 19 244345 2220 36%
c i 34.37 1484 59 3 105 3785 2330 57% 19 244345 2219 36%
c i 34.37 1484 58 3 105 3787 2331 57% 19 244345 2218 36%
c i 34.37 1484 58 3 105 3788 2331 57% 19 244345 2217 36%
c i 34.52 1484 57 3 112 3869 2390 56% 19 244345 2216 36%
c i 34.56 1484 57 3 116 3889 2405 56% 19 244345 2215 36%
c - 35.18 1394 55 4 135 4055 1737 55% 19 244011 2215 36%
c 
c  seconds    reductions  redundant   irredundant
c          MB     restarts       trail       variables
c            level   conflicts       glue         remaining
c 
c i 35.60 1394 56 4 155 4177 1843 54% 19 244011 2214 36%
c i 36.08 1394 53 4 180 4504 2059 52% 19 244011 2213 36%
c i 36.08 1394 53 4 181 4505 2059 52% 19 244011 2212 36%
c d 36.88 1394 48 4 195 5000 2417 51% 19 243971 2196 36%
c 2 36.94 1394 48 4 195 5000 3336 51% 19 243959 2194 36%
c p 40.82 1394 48 4 195 5000 5871 51% 19 243959 2151 35%
c d 41.09 1394 48 4 195 5000 5793 51% 19 243824 2148 35%
c # 42.07 1394 41 4 195 6007 6615 51% 18 243824 2148 35%
c - 42.49 1351 40 5 197 6138 2405 50% 18 243824 2148 35%
c } 42.89 1351 36 5 200 7002 2928 50% 17 243824 2148 35%
c [ 42.89 1351 23 5 200 7002 2928 54% 20 243824 2148 35%
c ] 43.52 1351 23 5 201 8024 3558 51% 20 243824 2148 35%
c 1 43.52 1351 23 5 201 8024 3558 51% 20 243824 2148 35%
c 
c --- [ writing output ] -----------------------------------------------------
c 
c writing simplified CNF to DIMACS file 'simp/33.cubes771.adj.simp1'
c * 43.52 1351 23 5 201 8024 3558 51% 20 243824 2148 35%
c opening file to write 'simp/33.cubes771.adj.simp1'
c writing 'p cnf 6160 243824' header
c closing file 'simp/33.cubes771.adj.simp1'
c after writing 94544860 bytes 90.2 MB
c wrote 243824 clauses in 0.75 seconds process time
c 
c --- [ writing extension ] --------------------------------------------------
c 
c writing extension stack to 'simp/33.cubes771.adj.ext1'
c opening file to write 'simp/33.cubes771.adj.ext1'
c closing file 'simp/33.cubes771.adj.ext1'
c after writing 13375 bytes 0.0 MB
c wrote 887 witnesses in 0.00 seconds process time
c 
c --- [ result ] -------------------------------------------------------------
c 
s SATISFIABLE
c 
c --- [ run-time profiling ] -------------------------------------------------
c 
c process time taken by individual solving procedures
c (percentage relative to process time for solving)
c 
c        19.67   82.45% parse
c        19.26   80.73% search
c        15.41   64.61% unstable
c         4.60   19.27% simplify
c         3.88   16.26% probe
c         3.35   14.03% stable
c         0.50    2.09% lucky
c         0.04    0.18% ternary
c   =================================
c        23.85   53.88% solve
c 
c last line shows process time for solving
c (percentage relative to total process time)
c 
c --- [ statistics ] ---------------------------------------------------------
c 
c chronological:              1783        22.22 %  of conflicts
c conflicts:                  8024       336.38    per second
c decisions:                 30669      1285.70    per second
c fixed:                       849        13.78 %  of all variables
c learned:                    7830        97.58 %  per conflict
c learned_lits:            1246137       100.00 %  learned literals
c minimized:                     0         0.00 %  learned literals
c shrunken:                 741835        59.53 %  learned literals
c minishrunken:             126048        10.12 %  learned literals
c propagations:            1261257         0.05 M  per second
c reduced:                    2109        26.28 %  per conflict
c rephased:                      3      2674.67    interval
c restarts:                    201        39.92    interval
c stabilizing:                   2        37.67 %  of conflicts
c substituted:                  19         0.31 %  of all variables
c subsumed:                   2072         0.06 %  of all clauses
c ternary:                     919         0.54 %  of resolved
c weakened:                     38         2.00    average size
c 
c seconds are measured in process time for solving
c 
c --- [ resources ] ----------------------------------------------------------
c 
c total process time since initialization:        44.27    seconds
c total real time since initialization:           44.61    seconds
c maximum resident set size of process:         1575.84    MB
c 
c --- [ shutting down ] ------------------------------------------------------
c 
c exit 10
WARNING! DIMACS header mismatch: wrong number of variables.
============================[ Problem Statistics ]=============================
|                                                                             |
|  Number of variables:          6120                                         |
|  Number of clauses:          243824                                         |
|  Parse time:                   1.26 s                                       |
|  Simplification time:          0.02 s                                       |
|                                                                             |
============================[ Search Statistics ]====================================================
| Conflicts |          ORIGINAL         |          LEARNT          | Num Sols |      SUBGRAPHS      |
|           |    Vars  Clauses Literals |    Limit  Clauses Lit/Cl |          | Canonical Noncanon. |
=====================================================================================================
|       115 |    6029   243839 20839589 |     2000      115     73 |        0 |        35        15 |
|       277 |    6029   243851 20839862 |     2000      277     75 |        0 |        54        27 |
|       525 |    6029   243874 20840324 |     2000      525     75 |        0 |        66        50 |
|       996 |    6029   244008 20843061 |     2000      996     62 |        0 |        93       184 |
|      1543 |    6029   244049 20844008 |     2000     1543     74 |        0 |       141       225 |
|      2722 |    6029   244469 20850722 |     3602     1724     43 |        0 |       275       645 |
|      3891 |    6029   244499 20851654 |     3602     2893     61 |        0 |       370       675 |
|      5915 |    6029   244815 20859437 |     5000     3115     52 |        0 |       499       991 |
|      8905 |    6029   245243 20867634 |     6305     3610     49 |        0 |       612      1419 |
|     12822 |    6029   245316 20868981 |     7554     4376     50 |        0 |       778      1492 |
|     19770 |    6029   246498 20889247 |     8783     7553     50 |        0 |      1227      2674 |
|     29070 |    6029   247149 20900484 |    11205     7475     48 |        0 |      1502      3325 |
|     43023 |    6029   248128 20918409 |    13607     9630     54 |        0 |      2396      4304 |
|     63567 |    6029   249211 20941871 |    16005    15972     62 |        0 |      3312      5387 |
|     94107 |    6029   250559 20964087 |    20811    10918     35 |        0 |      4283      6735 |
|    139680 |    6029   252343 20996062 |    24406    23486     67 |        0 |      6017      8519 |
|    208113 |    6029   255092 21047331 |    30412    24925     62 |        0 |      7622     11268 |
|    309551 |    6029   258004 21098009 |    37614    26165     52 |        0 |     10072     14180 |
|    465198 |    6008   259031 21100077 |    45619    37217     68 |        0 |     17782     22038 |
=====================================================================================================
Number of solutions   : 0
Canonical subgraphs   : 26977          (61 /sec)
          order  3    : 1              (166667 /sec)
          order  4    : 1              (500000 /sec)
          order  5    : 1              (200000 /sec)
          order  6    : 1              (52632 /sec)
          order  7    : 2              (10695 /sec)
          order  8    : 4              (1973 /sec)
          order  9    : 12             (528 /sec)
          order 10    : 53             (264 /sec)
          order 11    : 142            (254 /sec)
          order 12    : 226            (215 /sec)
          order 13    : 570            (140 /sec)
          order 14    : 3301           (89 /sec)
          order 15    : 8710           (64 /sec)
          order 16    : 6667           (54 /sec)
          order 17    : 4428           (51 /sec)
          order 18    : 1596           (51 /sec)
          order 19    : 560            (57 /sec)
          order 20    : 356            (65 /sec)
          order 21    : 346            (65 /sec)
          order 22    : 0              (-nan /sec)
Noncanonical subgraphs: 30461          (499 /sec)
          order  3    : 0              (-nan /sec)
          order  4    : 0              (-nan /sec)
          order  5    : 0              (-nan /sec)
          order  6    : 0              (-nan /sec)
          order  7    : 0              (-nan /sec)
          order  8    : 0              (-nan /sec)
          order  9    : 0              (-nan /sec)
          order 10    : 0              (-nan /sec)
          order 11    : 0              (-nan /sec)
          order 12    : 0              (-nan /sec)
          order 13    : 894            (6787 /sec)
          order 14    : 13175          (784 /sec)
          order 15    : 11763          (489 /sec)
          order 16    : 4232           (300 /sec)
          order 17    : 34             (493 /sec)
          order 18    : 3              (426 /sec)
          order 19    : 1              (158 /sec)
          order 20    : 0              (-nan /sec)
          order 21    : 0              (-nan /sec)
Canonicity checking   : 442.463 s
Noncanonicity checking: 60.9902 s
Total canonicity time : 503.453 s
database reductions   : 44
restarts              : 1405
conflicts             : 656108         (763 /sec)
decisions             : 853826         (0.00 % random) (993 /sec)
propagations          : 70159935       (81608 /sec)
conflict literals     : 65899291       (51.99 % deleted)
actual reward         : 0.117621
Memory used           : 289.00 MB
CPU time              : 859.716 s

UNSATISFIABLE
